\ Exact one-hot deterministic governed stochastic program
Minimize
 obj: 663.3253056 z_0 + 4231.62612752 z_1 + 4226.47967456 z_2 + 388.047867328 z_3 + 4231.62612752 z_4 + 4193.38035232 z_5 + 4207.73927536 z_6 + 4179.18830045 z_7 + 4226.47967456 z_8 + 4207.73927536 z_9 + 8731.457784 z_10 + 4153.62271085 z_11 + 388.047867328 z_12 + 4179.18830045 z_13 + 4153.62271085 z_14 + 4107.72029178 z_15 + 4231.62612752 z_16 + 4193.38035232 z_17 + 4207.73927536 z_18 + 4179.18830045 z_19 + 4193.38035232 z_20 + 4174.33903632 z_21 + 8697.7222352 z_22 + 4120.02535021 z_23 + 4207.73927536 z_24 + 8697.7222352 z_25 + 8772.51998 z_26 + 6016.92292509 z_27 + 4179.18830045 z_28 + 4120.02535021 z_29 + 6016.92292509 z_30 + 4106.5383857 z_31 + 4226.47967456 z_32 + 4207.73927536 z_33 + 8731.457784 z_34 + 4153.62271085 z_35 + 4207.73927536 z_36 + 8697.7222352 z_37 + 8772.51998 z_38 + 6016.92292509 z_39 + 8731.457784 z_40 + 8772.51998 z_41 + 8847.89386016 z_42 + 8759.54035859 z_43 + 4153.62271085 z_44 + 6016.92292509 z_45 + 8759.54035859 z_46 + 4180.85079002 z_47 + 388.047867328 z_48 + 4179.18830045 z_49 + 4153.62271085 z_50 + 4107.72029178 z_51 + 4179.18830045 z_52 + 4120.02535021 z_53 + 6016.92292509 z_54 + 4106.5383857 z_55 + 4153.62271085 z_56 + 6016.92292509 z_57 + 8759.54035859 z_58 + 4180.85079002 z_59 + 4107.72029178 z_60 + 4106.5383857 z_61 + 4180.85079002 z_62 + 4093.05142118 z_63 + 4231.62612752 z_64 + 4193.38035232 z_65 + 4207.73927536 z_66 + 4179.18830045 z_67 + 4193.38035232 z_68 + 4174.33903632 z_69 + 8697.7222352 z_70 + 4120.02535021 z_71 + 4207.73927536 z_72 + 8697.7222352 z_73 + 8772.51998 z_74 + 6016.92292509 z_75 + 4179.18830045 z_76 + 4120.02535021 z_77 + 6016.92292509 z_78 + 4106.5383857 z_79 + 4193.38035232 z_80 + 4174.33903632 z_81 + 8697.7222352 z_82 + 4120.02535021 z_83 + 4174.33903632 z_84 + 4173.49678592 z_85 + 8738.69898736 z_86 + 4160.16388125 z_87 + 8697.7222352 z_88 + 8738.69898736 z_89 + 8813.9966368 z_90 + 8725.64456083 z_91 + 4120.02535021 z_92 + 4160.16388125 z_93 + 8725.64456083 z_94 + 4147.03990618 z_95 + 4207.73927536 z_96 + 8697.7222352 z_97 + 8772.51998 z_98 + 6016.92292509 z_99 + 8697.7222352 z_100 + 8738.69898736 z_101 + 8813.9966368 z_102 + 8725.64456083 z_103 + 8772.51998 z_104 + 8813.9966368 z_105 + 8889.62712496 z_106 + 8801.05436611 z_107 + 6016.92292509 z_108 + 8725.64456083 z_109 + 8801.05436611 z_110 + 8712.66493942 z_111 + 4179.18830045 z_112 + 4120.02535021 z_113 + 6016.92292509 z_114 + 4106.5383857 z_115 + 4120.02535021 z_116 + 4160.16388125 z_117 + 8725.64456083 z_118 + 4147.03990618 z_119 + 6016.92292509 z_120 + 8725.64456083 z_121 + 8801.05436611 z_122 + 8712.66493942 z_123 + 4106.5383857 z_124 + 4147.03990618 z_125 + 8712.66493942 z_126 + 4133.9159311 z_127 + 4226.47967456 z_128 + 4207.73927536 z_129 + 8731.457784 z_130 + 4153.62271085 z_131 + 4207.73927536 z_132 + 8697.7222352 z_133 + 8772.51998 z_134 + 6016.92292509 z_135 + 8731.457784 z_136 + 8772.51998 z_137 + 8847.89386016 z_138 + 8759.54035859 z_139 + 4153.62271085 z_140 + 6016.92292509 z_141 + 8759.54035859 z_142 + 4180.85079002 z_143 + 4207.73927536 z_144 + 8697.7222352 z_145 + 8772.51998 z_146 + 6016.92292509 z_147 + 8697.7222352 z_148 + 8738.69898736 z_149 + 8813.9966368 z_150 + 8725.64456083 z_151 + 8772.51998 z_152 + 8813.9966368 z_153 + 8889.62712496 z_154 + 8801.05436611 z_155 + 6016.92292509 z_156 + 8725.64456083 z_157 + 8801.05436611 z_158 + 8712.66493942 z_159 + 8731.457784 z_160 + 8772.51998 z_161 + 8847.89386016 z_162 + 8759.54035859 z_163 + 8772.51998 z_164 + 8813.9966368 z_165 + 8889.62712496 z_166 + 8801.05436611 z_167 + 8847.89386016 z_168 + 8889.62712496 z_169 + 8965.30750912 z_170 + 8876.73475027 z_171 + 8759.54035859 z_172 + 8801.05436611 z_173 + 8876.73475027 z_174 + 8788.16199142 z_175 + 4153.62271085 z_176 + 6016.92292509 z_177 + 8759.54035859 z_178 + 4180.85079002 z_179 + 6016.92292509 z_180 + 8725.64456083 z_181 + 8801.05436611 z_182 + 8712.66493942 z_183 + 8759.54035859 z_184 + 8801.05436611 z_185 + 8876.73475027 z_186 + 8788.16199142 z_187 + 4180.85079002 z_188 + 8712.66493942 z_189 + 8788.16199142 z_190 + 6032.08531802 z_191 + 388.047867328 z_192 + 4179.18830045 z_193 + 4153.62271085 z_194 + 4107.72029178 z_195 + 4179.18830045 z_196 + 4120.02535021 z_197 + 6016.92292509 z_198 + 4106.5383857 z_199 + 4153.62271085 z_200 + 6016.92292509 z_201 + 8759.54035859 z_202 + 4180.85079002 z_203 + 4107.72029178 z_204 + 4106.5383857 z_205 + 4180.85079002 z_206 + 4093.05142118 z_207 + 4179.18830045 z_208 + 4120.02535021 z_209 + 6016.92292509 z_210 + 4106.5383857 z_211 + 4120.02535021 z_212 + 4160.16388125 z_213 + 8725.64456083 z_214 + 4147.03990618 z_215 + 6016.92292509 z_216 + 8725.64456083 z_217 + 8801.05436611 z_218 + 8712.66493942 z_219 + 4106.5383857 z_220 + 4147.03990618 z_221 + 8712.66493942 z_222 + 4133.9159311 z_223 + 4153.62271085 z_224 + 6016.92292509 z_225 + 8759.54035859 z_226 + 4180.85079002 z_227 + 6016.92292509 z_228 + 8725.64456083 z_229 + 8801.05436611 z_230 + 8712.66493942 z_231 + 8759.54035859 z_232 + 8801.05436611 z_233 + 8876.73475027 z_234 + 8788.16199142 z_235 + 4180.85079002 z_236 + 8712.66493942 z_237 + 8788.16199142 z_238 + 6032.08531802 z_239 + 4107.72029178 z_240 + 4106.5383857 z_241 + 4180.85079002 z_242 + 4093.05142118 z_243 + 4106.5383857 z_244 + 4147.03990618 z_245 + 8712.66493942 z_246 + 4133.9159311 z_247 + 4180.85079002 z_248 + 8712.66493942 z_249 + 8788.16199142 z_250 + 6032.08531802 z_251 + 4093.05142118 z_252 + 4133.9159311 z_253 + 6032.08531802 z_254 + 4120.79195603 z_255
Subject To
 one_sequence: z_0 + z_1 + z_2 + z_3 + z_4 + z_5 + z_6 + z_7 + z_8 + z_9 + z_10 + z_11 + z_12 + z_13 + z_14 + z_15 + z_16 + z_17 + z_18 + z_19 + z_20 + z_21 + z_22 + z_23 + z_24 + z_25 + z_26 + z_27 + z_28 + z_29 + z_30 + z_31 + z_32 + z_33 + z_34 + z_35 + z_36 + z_37 + z_38 + z_39 + z_40 + z_41 + z_42 + z_43 + z_44 + z_45 + z_46 + z_47 + z_48 + z_49 + z_50 + z_51 + z_52 + z_53 + z_54 + z_55 + z_56 + z_57 + z_58 + z_59 + z_60 + z_61 + z_62 + z_63 + z_64 + z_65 + z_66 + z_67 + z_68 + z_69 + z_70 + z_71 + z_72 + z_73 + z_74 + z_75 + z_76 + z_77 + z_78 + z_79 + z_80 + z_81 + z_82 + z_83 + z_84 + z_85 + z_86 + z_87 + z_88 + z_89 + z_90 + z_91 + z_92 + z_93 + z_94 + z_95 + z_96 + z_97 + z_98 + z_99 + z_100 + z_101 + z_102 + z_103 + z_104 + z_105 + z_106 + z_107 + z_108 + z_109 + z_110 + z_111 + z_112 + z_113 + z_114 + z_115 + z_116 + z_117 + z_118 + z_119 + z_120 + z_121 + z_122 + z_123 + z_124 + z_125 + z_126 + z_127 + z_128 + z_129 + z_130 + z_131 + z_132 + z_133 + z_134 + z_135 + z_136 + z_137 + z_138 + z_139 + z_140 + z_141 + z_142 + z_143 + z_144 + z_145 + z_146 + z_147 + z_148 + z_149 + z_150 + z_151 + z_152 + z_153 + z_154 + z_155 + z_156 + z_157 + z_158 + z_159 + z_160 + z_161 + z_162 + z_163 + z_164 + z_165 + z_166 + z_167 + z_168 + z_169 + z_170 + z_171 + z_172 + z_173 + z_174 + z_175 + z_176 + z_177 + z_178 + z_179 + z_180 + z_181 + z_182 + z_183 + z_184 + z_185 + z_186 + z_187 + z_188 + z_189 + z_190 + z_191 + z_192 + z_193 + z_194 + z_195 + z_196 + z_197 + z_198 + z_199 + z_200 + z_201 + z_202 + z_203 + z_204 + z_205 + z_206 + z_207 + z_208 + z_209 + z_210 + z_211 + z_212 + z_213 + z_214 + z_215 + z_216 + z_217 + z_218 + z_219 + z_220 + z_221 + z_222 + z_223 + z_224 + z_225 + z_226 + z_227 + z_228 + z_229 + z_230 + z_231 + z_232 + z_233 + z_234 + z_235 + z_236 + z_237 + z_238 + z_239 + z_240 + z_241 + z_242 + z_243 + z_244 + z_245 + z_246 + z_247 + z_248 + z_249 + z_250 + z_251 + z_252 + z_253 + z_254 + z_255 = 1
 budget_prob_catastrophic: 0 z_0 + 0.24 z_1 + 0.24 z_2 + 0 z_3 + 0.24 z_4 + 0.24 z_5 + 0.24 z_6 + 0.24 z_7 + 0.24 z_8 + 0.24 z_9 + 0.4072 z_10 + 0.24 z_11 + 0 z_12 + 0.24 z_13 + 0.24 z_14 + 0.24 z_15 + 0.24 z_16 + 0.24 z_17 + 0.24 z_18 + 0.24 z_19 + 0.24 z_20 + 0.24 z_21 + 0.4072 z_22 + 0.24 z_23 + 0.24 z_24 + 0.4072 z_25 + 0.4072 z_26 + 0.4072 z_27 + 0.24 z_28 + 0.24 z_29 + 0.4072 z_30 + 0.24 z_31 + 0.24 z_32 + 0.24 z_33 + 0.4072 z_34 + 0.24 z_35 + 0.24 z_36 + 0.4072 z_37 + 0.4072 z_38 + 0.4072 z_39 + 0.4072 z_40 + 0.4072 z_41 + 0.4072 z_42 + 0.4072 z_43 + 0.24 z_44 + 0.4072 z_45 + 0.4072 z_46 + 0.24 z_47 + 0 z_48 + 0.24 z_49 + 0.24 z_50 + 0.24 z_51 + 0.24 z_52 + 0.24 z_53 + 0.4072 z_54 + 0.24 z_55 + 0.24 z_56 + 0.4072 z_57 + 0.4072 z_58 + 0.24 z_59 + 0.24 z_60 + 0.24 z_61 + 0.24 z_62 + 0.24 z_63 + 0.24 z_64 + 0.24 z_65 + 0.24 z_66 + 0.24 z_67 + 0.24 z_68 + 0.24 z_69 + 0.4072 z_70 + 0.24 z_71 + 0.24 z_72 + 0.4072 z_73 + 0.4072 z_74 + 0.4072 z_75 + 0.24 z_76 + 0.24 z_77 + 0.4072 z_78 + 0.24 z_79 + 0.24 z_80 + 0.24 z_81 + 0.4072 z_82 + 0.24 z_83 + 0.24 z_84 + 0.24 z_85 + 0.4072 z_86 + 0.24 z_87 + 0.4072 z_88 + 0.4072 z_89 + 0.4072 z_90 + 0.4072 z_91 + 0.24 z_92 + 0.24 z_93 + 0.4072 z_94 + 0.24 z_95 + 0.24 z_96 + 0.4072 z_97 + 0.4072 z_98 + 0.4072 z_99 + 0.4072 z_100 + 0.4072 z_101 + 0.4072 z_102 + 0.4072 z_103 + 0.4072 z_104 + 0.4072 z_105 + 0.4072 z_106 + 0.4072 z_107 + 0.4072 z_108 + 0.4072 z_109 + 0.4072 z_110 + 0.4072 z_111 + 0.24 z_112 + 0.24 z_113 + 0.4072 z_114 + 0.24 z_115 + 0.24 z_116 + 0.24 z_117 + 0.4072 z_118 + 0.24 z_119 + 0.4072 z_120 + 0.4072 z_121 + 0.4072 z_122 + 0.4072 z_123 + 0.24 z_124 + 0.24 z_125 + 0.4072 z_126 + 0.24 z_127 + 0.24 z_128 + 0.24 z_129 + 0.4072 z_130 + 0.24 z_131 + 0.24 z_132 + 0.4072 z_133 + 0.4072 z_134 + 0.4072 z_135 + 0.4072 z_136 + 0.4072 z_137 + 0.4072 z_138 + 0.4072 z_139 + 0.24 z_140 + 0.4072 z_141 + 0.4072 z_142 + 0.24 z_143 + 0.24 z_144 + 0.4072 z_145 + 0.4072 z_146 + 0.4072 z_147 + 0.4072 z_148 + 0.4072 z_149 + 0.4072 z_150 + 0.4072 z_151 + 0.4072 z_152 + 0.4072 z_153 + 0.4072 z_154 + 0.4072 z_155 + 0.4072 z_156 + 0.4072 z_157 + 0.4072 z_158 + 0.4072 z_159 + 0.4072 z_160 + 0.4072 z_161 + 0.4072 z_162 + 0.4072 z_163 + 0.4072 z_164 + 0.4072 z_165 + 0.4072 z_166 + 0.4072 z_167 + 0.4072 z_168 + 0.4072 z_169 + 0.4072 z_170 + 0.4072 z_171 + 0.4072 z_172 + 0.4072 z_173 + 0.4072 z_174 + 0.4072 z_175 + 0.24 z_176 + 0.4072 z_177 + 0.4072 z_178 + 0.24 z_179 + 0.4072 z_180 + 0.4072 z_181 + 0.4072 z_182 + 0.4072 z_183 + 0.4072 z_184 + 0.4072 z_185 + 0.4072 z_186 + 0.4072 z_187 + 0.24 z_188 + 0.4072 z_189 + 0.4072 z_190 + 0.4072 z_191 + 0 z_192 + 0.24 z_193 + 0.24 z_194 + 0.24 z_195 + 0.24 z_196 + 0.24 z_197 + 0.4072 z_198 + 0.24 z_199 + 0.24 z_200 + 0.4072 z_201 + 0.4072 z_202 + 0.24 z_203 + 0.24 z_204 + 0.24 z_205 + 0.24 z_206 + 0.24 z_207 + 0.24 z_208 + 0.24 z_209 + 0.4072 z_210 + 0.24 z_211 + 0.24 z_212 + 0.24 z_213 + 0.4072 z_214 + 0.24 z_215 + 0.4072 z_216 + 0.4072 z_217 + 0.4072 z_218 + 0.4072 z_219 + 0.24 z_220 + 0.24 z_221 + 0.4072 z_222 + 0.24 z_223 + 0.24 z_224 + 0.4072 z_225 + 0.4072 z_226 + 0.24 z_227 + 0.4072 z_228 + 0.4072 z_229 + 0.4072 z_230 + 0.4072 z_231 + 0.4072 z_232 + 0.4072 z_233 + 0.4072 z_234 + 0.4072 z_235 + 0.24 z_236 + 0.4072 z_237 + 0.4072 z_238 + 0.4072 z_239 + 0.24 z_240 + 0.24 z_241 + 0.24 z_242 + 0.24 z_243 + 0.24 z_244 + 0.24 z_245 + 0.4072 z_246 + 0.24 z_247 + 0.24 z_248 + 0.4072 z_249 + 0.4072 z_250 + 0.4072 z_251 + 0.24 z_252 + 0.24 z_253 + 0.4072 z_254 + 0.24 z_255 <= 0.22
 budget_prob_no_benefit: 0.120216 z_0 + 0.28189728 z_1 + 0.2654448 z_2 + 0.055128 z_3 + 0.28189728 z_4 + 0.2654448 z_5 + 0.25264032 z_6 + 0.2654448 z_7 + 0.2654448 z_8 + 0.25264032 z_9 + 1 z_10 + 0.24361152 z_11 + 0.055128 z_12 + 0.2654448 z_13 + 0.24361152 z_14 + 0.25264032 z_15 + 0.28189728 z_16 + 0.2654448 z_17 + 0.25264032 z_18 + 0.2654448 z_19 + 0.2654448 z_20 + 0.25264032 z_21 + 1 z_22 + 0.24361152 z_23 + 0.25264032 z_24 + 1 z_25 + 1 z_26 + 0.4072 z_27 + 0.2654448 z_28 + 0.24361152 z_29 + 0.4072 z_30 + 0.24361152 z_31 + 0.2654448 z_32 + 0.25264032 z_33 + 1 z_34 + 0.24361152 z_35 + 0.25264032 z_36 + 1 z_37 + 1 z_38 + 0.4072 z_39 + 1 z_40 + 1 z_41 + 1 z_42 + 1 z_43 + 0.24361152 z_44 + 0.4072 z_45 + 1 z_46 + 0.24361152 z_47 + 0.055128 z_48 + 0.2654448 z_49 + 0.24361152 z_50 + 0.25264032 z_51 + 0.2654448 z_52 + 0.24361152 z_53 + 0.4072 z_54 + 0.24361152 z_55 + 0.24361152 z_56 + 0.4072 z_57 + 1 z_58 + 0.24361152 z_59 + 0.25264032 z_60 + 0.24361152 z_61 + 0.24361152 z_62 + 0.24361152 z_63 + 0.28189728 z_64 + 0.2654448 z_65 + 0.25264032 z_66 + 0.2654448 z_67 + 0.2654448 z_68 + 0.25264032 z_69 + 1 z_70 + 0.24361152 z_71 + 0.25264032 z_72 + 1 z_73 + 1 z_74 + 0.4072 z_75 + 0.2654448 z_76 + 0.24361152 z_77 + 0.4072 z_78 + 0.24361152 z_79 + 0.2654448 z_80 + 0.25264032 z_81 + 1 z_82 + 0.24361152 z_83 + 0.25264032 z_84 + 0.24361152 z_85 + 1 z_86 + 0.24361152 z_87 + 1 z_88 + 1 z_89 + 1 z_90 + 1 z_91 + 0.24361152 z_92 + 0.24361152 z_93 + 1 z_94 + 0.24361152 z_95 + 0.25264032 z_96 + 1 z_97 + 1 z_98 + 0.4072 z_99 + 1 z_100 + 1 z_101 + 1 z_102 + 1 z_103 + 1 z_104 + 1 z_105 + 1 z_106 + 1 z_107 + 0.4072 z_108 + 1 z_109 + 1 z_110 + 1 z_111 + 0.2654448 z_112 + 0.24361152 z_113 + 0.4072 z_114 + 0.24361152 z_115 + 0.24361152 z_116 + 0.24361152 z_117 + 1 z_118 + 0.24361152 z_119 + 0.4072 z_120 + 1 z_121 + 1 z_122 + 1 z_123 + 0.24361152 z_124 + 0.24361152 z_125 + 1 z_126 + 0.24361152 z_127 + 0.2654448 z_128 + 0.25264032 z_129 + 1 z_130 + 0.24361152 z_131 + 0.25264032 z_132 + 1 z_133 + 1 z_134 + 0.4072 z_135 + 1 z_136 + 1 z_137 + 1 z_138 + 1 z_139 + 0.24361152 z_140 + 0.4072 z_141 + 1 z_142 + 0.24361152 z_143 + 0.25264032 z_144 + 1 z_145 + 1 z_146 + 0.4072 z_147 + 1 z_148 + 1 z_149 + 1 z_150 + 1 z_151 + 1 z_152 + 1 z_153 + 1 z_154 + 1 z_155 + 0.4072 z_156 + 1 z_157 + 1 z_158 + 1 z_159 + 1 z_160 + 1 z_161 + 1 z_162 + 1 z_163 + 1 z_164 + 1 z_165 + 1 z_166 + 1 z_167 + 1 z_168 + 1 z_169 + 1 z_170 + 1 z_171 + 1 z_172 + 1 z_173 + 1 z_174 + 1 z_175 + 0.24361152 z_176 + 0.4072 z_177 + 1 z_178 + 0.24361152 z_179 + 0.4072 z_180 + 1 z_181 + 1 z_182 + 1 z_183 + 1 z_184 + 1 z_185 + 1 z_186 + 1 z_187 + 0.24361152 z_188 + 1 z_189 + 1 z_190 + 0.4072 z_191 + 0.055128 z_192 + 0.2654448 z_193 + 0.24361152 z_194 + 0.25264032 z_195 + 0.2654448 z_196 + 0.24361152 z_197 + 0.4072 z_198 + 0.24361152 z_199 + 0.24361152 z_200 + 0.4072 z_201 + 1 z_202 + 0.24361152 z_203 + 0.25264032 z_204 + 0.24361152 z_205 + 0.24361152 z_206 + 0.24361152 z_207 + 0.2654448 z_208 + 0.24361152 z_209 + 0.4072 z_210 + 0.24361152 z_211 + 0.24361152 z_212 + 0.24361152 z_213 + 1 z_214 + 0.24361152 z_215 + 0.4072 z_216 + 1 z_217 + 1 z_218 + 1 z_219 + 0.24361152 z_220 + 0.24361152 z_221 + 1 z_222 + 0.24361152 z_223 + 0.24361152 z_224 + 0.4072 z_225 + 1 z_226 + 0.24361152 z_227 + 0.4072 z_228 + 1 z_229 + 1 z_230 + 1 z_231 + 1 z_232 + 1 z_233 + 1 z_234 + 1 z_235 + 0.24361152 z_236 + 1 z_237 + 1 z_238 + 0.4072 z_239 + 0.25264032 z_240 + 0.24361152 z_241 + 0.24361152 z_242 + 0.24361152 z_243 + 0.24361152 z_244 + 0.24361152 z_245 + 1 z_246 + 0.24361152 z_247 + 0.24361152 z_248 + 1 z_249 + 1 z_250 + 0.4072 z_251 + 0.24361152 z_252 + 0.24361152 z_253 + 0.4072 z_254 + 0.24361152 z_255 <= 0.24
 budget_prob_offtarget: 0 z_0 + 0.24 z_1 + 0.24 z_2 + 0 z_3 + 0.24 z_4 + 0.24 z_5 + 0.24 z_6 + 0.24 z_7 + 0.24 z_8 + 0.24 z_9 + 0.24 z_10 + 0.24 z_11 + 0 z_12 + 0.24 z_13 + 0.24 z_14 + 0.24 z_15 + 0.24 z_16 + 0.24 z_17 + 0.24 z_18 + 0.24 z_19 + 0.24 z_20 + 0.24 z_21 + 0.24 z_22 + 0.24 z_23 + 0.24 z_24 + 0.24 z_25 + 0.24 z_26 + 0.24 z_27 + 0.24 z_28 + 0.24 z_29 + 0.24 z_30 + 0.24 z_31 + 0.24 z_32 + 0.24 z_33 + 0.24 z_34 + 0.24 z_35 + 0.24 z_36 + 0.24 z_37 + 0.24 z_38 + 0.24 z_39 + 0.24 z_40 + 0.24 z_41 + 0.24 z_42 + 0.24 z_43 + 0.24 z_44 + 0.24 z_45 + 0.24 z_46 + 0.24 z_47 + 0 z_48 + 0.24 z_49 + 0.24 z_50 + 0.24 z_51 + 0.24 z_52 + 0.24 z_53 + 0.24 z_54 + 0.24 z_55 + 0.24 z_56 + 0.24 z_57 + 0.24 z_58 + 0.24 z_59 + 0.24 z_60 + 0.24 z_61 + 0.24 z_62 + 0.24 z_63 + 0.24 z_64 + 0.24 z_65 + 0.24 z_66 + 0.24 z_67 + 0.24 z_68 + 0.24 z_69 + 0.24 z_70 + 0.24 z_71 + 0.24 z_72 + 0.24 z_73 + 0.24 z_74 + 0.24 z_75 + 0.24 z_76 + 0.24 z_77 + 0.24 z_78 + 0.24 z_79 + 0.24 z_80 + 0.24 z_81 + 0.24 z_82 + 0.24 z_83 + 0.24 z_84 + 0.24 z_85 + 0.24 z_86 + 0.24 z_87 + 0.24 z_88 + 0.24 z_89 + 0.24 z_90 + 0.24 z_91 + 0.24 z_92 + 0.24 z_93 + 0.24 z_94 + 0.24 z_95 + 0.24 z_96 + 0.24 z_97 + 0.24 z_98 + 0.24 z_99 + 0.24 z_100 + 0.24 z_101 + 0.24 z_102 + 0.24 z_103 + 0.24 z_104 + 0.24 z_105 + 0.24 z_106 + 0.24 z_107 + 0.24 z_108 + 0.24 z_109 + 0.24 z_110 + 0.24 z_111 + 0.24 z_112 + 0.24 z_113 + 0.24 z_114 + 0.24 z_115 + 0.24 z_116 + 0.24 z_117 + 0.24 z_118 + 0.24 z_119 + 0.24 z_120 + 0.24 z_121 + 0.24 z_122 + 0.24 z_123 + 0.24 z_124 + 0.24 z_125 + 0.24 z_126 + 0.24 z_127 + 0.24 z_128 + 0.24 z_129 + 0.24 z_130 + 0.24 z_131 + 0.24 z_132 + 0.24 z_133 + 0.24 z_134 + 0.24 z_135 + 0.24 z_136 + 0.24 z_137 + 0.24 z_138 + 0.24 z_139 + 0.24 z_140 + 0.24 z_141 + 0.24 z_142 + 0.24 z_143 + 0.24 z_144 + 0.24 z_145 + 0.24 z_146 + 0.24 z_147 + 0.24 z_148 + 0.24 z_149 + 0.24 z_150 + 0.24 z_151 + 0.24 z_152 + 0.24 z_153 + 0.24 z_154 + 0.24 z_155 + 0.24 z_156 + 0.24 z_157 + 0.24 z_158 + 0.24 z_159 + 0.24 z_160 + 0.24 z_161 + 0.24 z_162 + 0.24 z_163 + 0.24 z_164 + 0.24 z_165 + 0.24 z_166 + 0.24 z_167 + 0.24 z_168 + 0.24 z_169 + 0.24 z_170 + 0.24 z_171 + 0.24 z_172 + 0.24 z_173 + 0.24 z_174 + 0.24 z_175 + 0.24 z_176 + 0.24 z_177 + 0.24 z_178 + 0.24 z_179 + 0.24 z_180 + 0.24 z_181 + 0.24 z_182 + 0.24 z_183 + 0.24 z_184 + 0.24 z_185 + 0.24 z_186 + 0.24 z_187 + 0.24 z_188 + 0.24 z_189 + 0.24 z_190 + 0.24 z_191 + 0 z_192 + 0.24 z_193 + 0.24 z_194 + 0.24 z_195 + 0.24 z_196 + 0.24 z_197 + 0.24 z_198 + 0.24 z_199 + 0.24 z_200 + 0.24 z_201 + 0.24 z_202 + 0.24 z_203 + 0.24 z_204 + 0.24 z_205 + 0.24 z_206 + 0.24 z_207 + 0.24 z_208 + 0.24 z_209 + 0.24 z_210 + 0.24 z_211 + 0.24 z_212 + 0.24 z_213 + 0.24 z_214 + 0.24 z_215 + 0.24 z_216 + 0.24 z_217 + 0.24 z_218 + 0.24 z_219 + 0.24 z_220 + 0.24 z_221 + 0.24 z_222 + 0.24 z_223 + 0.24 z_224 + 0.24 z_225 + 0.24 z_226 + 0.24 z_227 + 0.24 z_228 + 0.24 z_229 + 0.24 z_230 + 0.24 z_231 + 0.24 z_232 + 0.24 z_233 + 0.24 z_234 + 0.24 z_235 + 0.24 z_236 + 0.24 z_237 + 0.24 z_238 + 0.24 z_239 + 0.24 z_240 + 0.24 z_241 + 0.24 z_242 + 0.24 z_243 + 0.24 z_244 + 0.24 z_245 + 0.24 z_246 + 0.24 z_247 + 0.24 z_248 + 0.24 z_249 + 0.24 z_250 + 0.24 z_251 + 0.24 z_252 + 0.24 z_253 + 0.24 z_254 + 0.24 z_255 <= 0.24
 budget_prob_immune: 0 z_0 + 0.0528 z_1 + 0.0528 z_2 + 0 z_3 + 0.0528 z_4 + 0.0528 z_5 + 0.0528 z_6 + 0.0528 z_7 + 0.0528 z_8 + 0.0528 z_9 + 0.22 z_10 + 0.0528 z_11 + 0 z_12 + 0.0528 z_13 + 0.0528 z_14 + 0.0528 z_15 + 0.0528 z_16 + 0.0528 z_17 + 0.0528 z_18 + 0.0528 z_19 + 0.0528 z_20 + 0.0528 z_21 + 0.22 z_22 + 0.0528 z_23 + 0.0528 z_24 + 0.22 z_25 + 0.22 z_26 + 0.22 z_27 + 0.0528 z_28 + 0.0528 z_29 + 0.22 z_30 + 0.0528 z_31 + 0.0528 z_32 + 0.0528 z_33 + 0.22 z_34 + 0.0528 z_35 + 0.0528 z_36 + 0.22 z_37 + 0.22 z_38 + 0.22 z_39 + 0.22 z_40 + 0.22 z_41 + 0.22 z_42 + 0.22 z_43 + 0.0528 z_44 + 0.22 z_45 + 0.22 z_46 + 0.0528 z_47 + 0 z_48 + 0.0528 z_49 + 0.0528 z_50 + 0.0528 z_51 + 0.0528 z_52 + 0.0528 z_53 + 0.22 z_54 + 0.0528 z_55 + 0.0528 z_56 + 0.22 z_57 + 0.22 z_58 + 0.0528 z_59 + 0.0528 z_60 + 0.0528 z_61 + 0.0528 z_62 + 0.0528 z_63 + 0.0528 z_64 + 0.0528 z_65 + 0.0528 z_66 + 0.0528 z_67 + 0.0528 z_68 + 0.0528 z_69 + 0.22 z_70 + 0.0528 z_71 + 0.0528 z_72 + 0.22 z_73 + 0.22 z_74 + 0.22 z_75 + 0.0528 z_76 + 0.0528 z_77 + 0.22 z_78 + 0.0528 z_79 + 0.0528 z_80 + 0.0528 z_81 + 0.22 z_82 + 0.0528 z_83 + 0.0528 z_84 + 0.0528 z_85 + 0.22 z_86 + 0.0528 z_87 + 0.22 z_88 + 0.22 z_89 + 0.22 z_90 + 0.22 z_91 + 0.0528 z_92 + 0.0528 z_93 + 0.22 z_94 + 0.0528 z_95 + 0.0528 z_96 + 0.22 z_97 + 0.22 z_98 + 0.22 z_99 + 0.22 z_100 + 0.22 z_101 + 0.22 z_102 + 0.22 z_103 + 0.22 z_104 + 0.22 z_105 + 0.22 z_106 + 0.22 z_107 + 0.22 z_108 + 0.22 z_109 + 0.22 z_110 + 0.22 z_111 + 0.0528 z_112 + 0.0528 z_113 + 0.22 z_114 + 0.0528 z_115 + 0.0528 z_116 + 0.0528 z_117 + 0.22 z_118 + 0.0528 z_119 + 0.22 z_120 + 0.22 z_121 + 0.22 z_122 + 0.22 z_123 + 0.0528 z_124 + 0.0528 z_125 + 0.22 z_126 + 0.0528 z_127 + 0.0528 z_128 + 0.0528 z_129 + 0.22 z_130 + 0.0528 z_131 + 0.0528 z_132 + 0.22 z_133 + 0.22 z_134 + 0.22 z_135 + 0.22 z_136 + 0.22 z_137 + 0.22 z_138 + 0.22 z_139 + 0.0528 z_140 + 0.22 z_141 + 0.22 z_142 + 0.0528 z_143 + 0.0528 z_144 + 0.22 z_145 + 0.22 z_146 + 0.22 z_147 + 0.22 z_148 + 0.22 z_149 + 0.22 z_150 + 0.22 z_151 + 0.22 z_152 + 0.22 z_153 + 0.22 z_154 + 0.22 z_155 + 0.22 z_156 + 0.22 z_157 + 0.22 z_158 + 0.22 z_159 + 0.22 z_160 + 0.22 z_161 + 0.22 z_162 + 0.22 z_163 + 0.22 z_164 + 0.22 z_165 + 0.22 z_166 + 0.22 z_167 + 0.22 z_168 + 0.22 z_169 + 0.22 z_170 + 0.22 z_171 + 0.22 z_172 + 0.22 z_173 + 0.22 z_174 + 0.22 z_175 + 0.0528 z_176 + 0.22 z_177 + 0.22 z_178 + 0.0528 z_179 + 0.22 z_180 + 0.22 z_181 + 0.22 z_182 + 0.22 z_183 + 0.22 z_184 + 0.22 z_185 + 0.22 z_186 + 0.22 z_187 + 0.0528 z_188 + 0.22 z_189 + 0.22 z_190 + 0.22 z_191 + 0 z_192 + 0.0528 z_193 + 0.0528 z_194 + 0.0528 z_195 + 0.0528 z_196 + 0.0528 z_197 + 0.22 z_198 + 0.0528 z_199 + 0.0528 z_200 + 0.22 z_201 + 0.22 z_202 + 0.0528 z_203 + 0.0528 z_204 + 0.0528 z_205 + 0.0528 z_206 + 0.0528 z_207 + 0.0528 z_208 + 0.0528 z_209 + 0.22 z_210 + 0.0528 z_211 + 0.0528 z_212 + 0.0528 z_213 + 0.22 z_214 + 0.0528 z_215 + 0.22 z_216 + 0.22 z_217 + 0.22 z_218 + 0.22 z_219 + 0.0528 z_220 + 0.0528 z_221 + 0.22 z_222 + 0.0528 z_223 + 0.0528 z_224 + 0.22 z_225 + 0.22 z_226 + 0.0528 z_227 + 0.22 z_228 + 0.22 z_229 + 0.22 z_230 + 0.22 z_231 + 0.22 z_232 + 0.22 z_233 + 0.22 z_234 + 0.22 z_235 + 0.0528 z_236 + 0.22 z_237 + 0.22 z_238 + 0.22 z_239 + 0.0528 z_240 + 0.0528 z_241 + 0.0528 z_242 + 0.0528 z_243 + 0.0528 z_244 + 0.0528 z_245 + 0.22 z_246 + 0.0528 z_247 + 0.0528 z_248 + 0.22 z_249 + 0.22 z_250 + 0.22 z_251 + 0.0528 z_252 + 0.0528 z_253 + 0.22 z_254 + 0.0528 z_255 <= 0.22
Binary
 z_0
 z_1
 z_2
 z_3
 z_4
 z_5
 z_6
 z_7
 z_8
 z_9
 z_10
 z_11
 z_12
 z_13
 z_14
 z_15
 z_16
 z_17
 z_18
 z_19
 z_20
 z_21
 z_22
 z_23
 z_24
 z_25
 z_26
 z_27
 z_28
 z_29
 z_30
 z_31
 z_32
 z_33
 z_34
 z_35
 z_36
 z_37
 z_38
 z_39
 z_40
 z_41
 z_42
 z_43
 z_44
 z_45
 z_46
 z_47
 z_48
 z_49
 z_50
 z_51
 z_52
 z_53
 z_54
 z_55
 z_56
 z_57
 z_58
 z_59
 z_60
 z_61
 z_62
 z_63
 z_64
 z_65
 z_66
 z_67
 z_68
 z_69
 z_70
 z_71
 z_72
 z_73
 z_74
 z_75
 z_76
 z_77
 z_78
 z_79
 z_80
 z_81
 z_82
 z_83
 z_84
 z_85
 z_86
 z_87
 z_88
 z_89
 z_90
 z_91
 z_92
 z_93
 z_94
 z_95
 z_96
 z_97
 z_98
 z_99
 z_100
 z_101
 z_102
 z_103
 z_104
 z_105
 z_106
 z_107
 z_108
 z_109
 z_110
 z_111
 z_112
 z_113
 z_114
 z_115
 z_116
 z_117
 z_118
 z_119
 z_120
 z_121
 z_122
 z_123
 z_124
 z_125
 z_126
 z_127
 z_128
 z_129
 z_130
 z_131
 z_132
 z_133
 z_134
 z_135
 z_136
 z_137
 z_138
 z_139
 z_140
 z_141
 z_142
 z_143
 z_144
 z_145
 z_146
 z_147
 z_148
 z_149
 z_150
 z_151
 z_152
 z_153
 z_154
 z_155
 z_156
 z_157
 z_158
 z_159
 z_160
 z_161
 z_162
 z_163
 z_164
 z_165
 z_166
 z_167
 z_168
 z_169
 z_170
 z_171
 z_172
 z_173
 z_174
 z_175
 z_176
 z_177
 z_178
 z_179
 z_180
 z_181
 z_182
 z_183
 z_184
 z_185
 z_186
 z_187
 z_188
 z_189
 z_190
 z_191
 z_192
 z_193
 z_194
 z_195
 z_196
 z_197
 z_198
 z_199
 z_200
 z_201
 z_202
 z_203
 z_204
 z_205
 z_206
 z_207
 z_208
 z_209
 z_210
 z_211
 z_212
 z_213
 z_214
 z_215
 z_216
 z_217
 z_218
 z_219
 z_220
 z_221
 z_222
 z_223
 z_224
 z_225
 z_226
 z_227
 z_228
 z_229
 z_230
 z_231
 z_232
 z_233
 z_234
 z_235
 z_236
 z_237
 z_238
 z_239
 z_240
 z_241
 z_242
 z_243
 z_244
 z_245
 z_246
 z_247
 z_248
 z_249
 z_250
 z_251
 z_252
 z_253
 z_254
 z_255
End
